p cnf 56 186
c p weight -21 1 0
c p weight 21 -1 0
c p weight 25 6.12323399573676603586882014729198302312846062338790031898128063403419218957424163818359375E-17 0
c p weight -25 1 0
c p weight 26 1 0
c p weight -26 1 0
c p weight -23 1 0
c p weight 23 -1 0
c p weight -27 1 0
c p weight 27 -1 0
c p weight -29 1 0
c p weight 29 -1 0
c p weight -32 1 0
c p weight 32 -1 0
c p weight -35 1 0
c p weight 35 -1 0
c p weight -38 1 0
c p weight 38 -1 0
c p weight -41 1 0
c p weight 41 -1 0
c p weight -44 1 0
c p weight 44 -1 0
c p weight -47 1 0
c p weight 47 -1 0
c p weight -50 1 0
c p weight 50 -1 0
c p weight -53 1 0
c p weight 53 -1 0
c p weight 56 0.5 0
c p weight -56 1 0
56 0
-19 0
-17 0
-15 0
-13 0
-11 0
-9 0
-7 0
-5 0
-3 0
-1 0
-21 19 0
-21 20 0
21 -19 -20 0
22 19 -20 0
22 -19 20 0
-22 19 20 0
-22 -19 -20 0
-23 24 0
-23 22 0
-23 -19 0
23 -24 19 -22 0
24 -19 22 0
-24 19 22 0
-25 22 0
24 -25 -19 0
-24 -25 19 0
24 25 19 -22 0
-24 25 -19 -22 0
-26 22 0
24 -26 19 0
-24 -26 -19 0
24 26 -19 -22 0
-24 26 19 -22 0
-27 24 0
-27 22 0
27 -24 -22 0
28 24 -22 0
28 -24 22 0
-28 24 22 0
-28 -24 -22 0
-29 24 0
-29 18 0
-29 17 -28 0
-29 -17 28 0
29 -24 17 28 -18 0
29 -24 -17 -28 -18 0
31 24 -17 0
31 -24 17 0
-31 24 17 0
-31 -24 -17 0
30 28 -18 0
30 -28 18 0
-30 28 18 0
-30 -28 -18 0
-32 31 0
-32 16 0
-32 15 -18 0
-32 -15 18 0
32 -31 15 18 -16 0
32 -31 -15 -18 -16 0
34 31 -15 0
34 -31 15 0
-34 31 15 0
-34 -31 -15 0
33 18 -16 0
33 -18 16 0
-33 18 16 0
-33 -18 -16 0
-35 34 0
-35 14 0
-35 13 -16 0
-35 -13 16 0
35 -34 13 16 -14 0
35 -34 -13 -16 -14 0
37 34 -13 0
37 -34 13 0
-37 34 13 0
-37 -34 -13 0
36 16 -14 0
36 -16 14 0
-36 16 14 0
-36 -16 -14 0
-38 37 0
-38 12 0
-38 11 -14 0
-38 -11 14 0
38 -37 11 14 -12 0
38 -37 -11 -14 -12 0
40 37 -11 0
40 -37 11 0
-40 37 11 0
-40 -37 -11 0
39 14 -12 0
39 -14 12 0
-39 14 12 0
-39 -14 -12 0
-41 40 0
-41 10 0
-41 9 -12 0
-41 -9 12 0
41 -40 9 12 -10 0
41 -40 -9 -12 -10 0
43 40 -9 0
43 -40 9 0
-43 40 9 0
-43 -40 -9 0
42 12 -10 0
42 -12 10 0
-42 12 10 0
-42 -12 -10 0
-44 43 0
-44 8 0
-44 7 -10 0
-44 -7 10 0
44 -43 7 10 -8 0
44 -43 -7 -10 -8 0
46 43 -7 0
46 -43 7 0
-46 43 7 0
-46 -43 -7 0
45 10 -8 0
45 -10 8 0
-45 10 8 0
-45 -10 -8 0
-47 46 0
-47 6 0
-47 5 -8 0
-47 -5 8 0
47 -46 5 8 -6 0
47 -46 -5 -8 -6 0
49 46 -5 0
49 -46 5 0
-49 46 5 0
-49 -46 -5 0
48 8 -6 0
48 -8 6 0
-48 8 6 0
-48 -8 -6 0
-50 49 0
-50 4 0
-50 3 -6 0
-50 -3 6 0
50 -49 3 6 -4 0
50 -49 -3 -6 -4 0
52 49 -3 0
52 -49 3 0
-52 49 3 0
-52 -49 -3 0
51 6 -4 0
51 -6 4 0
-51 6 4 0
-51 -6 -4 0
-53 52 0
-53 2 0
-53 1 -4 0
-53 -1 4 0
53 -52 1 4 -2 0
53 -52 -1 -4 -2 0
55 52 -1 0
55 -52 1 0
-55 52 1 0
-55 -52 -1 0
54 4 -2 0
54 -4 2 0
-54 4 2 0
-54 -4 -2 0
-55 0
-52 0
-54 0
-49 0
-51 0
-46 0
-48 0
-43 0
-45 0
-40 0
-42 0
-37 0
-39 0
-34 0
-36 0
-31 0
-33 0
-24 0
-30 0
